NAME : rbu10
COMMENT : Bonn VLSI data set with 10 points
COMMENT : Uni Bonn, Research Institute for Discrete Math
COMMENT : Contributed by Andre Rohe
TYPE : TSP
DIMENSION : 15
EDGE_WEIGHT_TYPE : EUC_2D
NODE_COORD_SECTION
1 0 13
2 0 25
3 0 37
4 0 38
5 0 49
6 0 50
7 0 56
8 0 61
9 0 62
10 0 74
11 0 86
12 0 98
13 2 18
14 2 20
15 2 24